\ Model Bin Packing Problem
\ LP format - for model browsing. Use MPS format to capture full model detail.
Minimize
  y[0] + y[1] + y[2] + y[3] + y[4] + y[5] + y[6] + y[7] + y[8] + y[9]
   + y[10] + y[11] + y[12] + y[13] + y[14] + y[15] + y[16] + y[17] + y[18]
   + y[19] + y[20] + y[21] + y[22] + y[23] + y[24] + y[25] + y[26] + y[27]
   + y[28]
Subject To
 R0: - 16.3942679846 y[0] + 1.1800057566 x[0,0] + 2.9794228561 x[0,1]
   + 2.606477591 x[0,2] + 6.3004820098 x[0,3] + 5.8702968835 x[0,4] <= 0
 R1: - 16.3942679846 y[1] + 1.1800057566 x[1,0] + 2.9794228561 x[1,1]
   + 2.606477591 x[1,2] + 6.3004820098 x[1,3] + 5.8702968835 x[1,4] <= 0
 R2: - 16.3942679846 y[2] + 1.1800057566 x[2,0] + 2.9794228561 x[2,1]
   + 2.606477591 x[2,2] + 6.3004820098 x[2,3] + 5.8702968835 x[2,4] <= 0
 R3: - 16.3942679846 y[3] + 1.1800057566 x[3,0] + 2.9794228561 x[3,1]
   + 2.606477591 x[3,2] + 6.3004820098 x[3,3] + 5.8702968835 x[3,4] <= 0
 R4: - 16.3942679846 y[4] + 1.1800057566 x[4,0] + 2.9794228561 x[4,1]
   + 2.606477591 x[4,2] + 6.3004820098 x[4,3] + 5.8702968835 x[4,4] <= 0
 R5: - 16.3942679846 y[5] + 1.1800057566 x[5,0] + 2.9794228561 x[5,1]
   + 2.606477591 x[5,2] + 6.3004820098 x[5,3] + 5.8702968835 x[5,4] <= 0
 R6: - 16.3942679846 y[6] + 1.1800057566 x[6,0] + 2.9794228561 x[6,1]
   + 2.606477591 x[6,2] + 6.3004820098 x[6,3] + 5.8702968835 x[6,4] <= 0
 R7: - 16.3942679846 y[7] + 1.1800057566 x[7,0] + 2.9794228561 x[7,1]
   + 2.606477591 x[7,2] + 6.3004820098 x[7,3] + 5.8702968835 x[7,4] <= 0
 R8: - 16.3942679846 y[8] + 1.1800057566 x[8,0] + 2.9794228561 x[8,1]
   + 2.606477591 x[8,2] + 6.3004820098 x[8,3] + 5.8702968835 x[8,4] <= 0
 R9: - 16.3942679846 y[9] + 1.1800057566 x[9,0] + 2.9794228561 x[9,1]
   + 2.606477591 x[9,2] + 6.3004820098 x[9,3] + 5.8702968835 x[9,4] <= 0
 R10: - 16.3942679846 y[10] + 1.1800057566 x[10,0] + 2.9794228561 x[10,1]
   + 2.606477591 x[10,2] + 6.3004820098 x[10,3] + 5.8702968835 x[10,4]
   <= 0
 R11: - 16.3942679846 y[11] + 1.1800057566 x[11,0] + 2.9794228561 x[11,1]
   + 2.606477591 x[11,2] + 6.3004820098 x[11,3] + 5.8702968835 x[11,4]
   <= 0
 R12: - 16.3942679846 y[12] + 1.1800057566 x[12,0] + 2.9794228561 x[12,1]
   + 2.606477591 x[12,2] + 6.3004820098 x[12,3] + 5.8702968835 x[12,4]
   <= 0
 R13: - 16.3942679846 y[13] + 1.1800057566 x[13,0] + 2.9794228561 x[13,1]
   + 2.606477591 x[13,2] + 6.3004820098 x[13,3] + 5.8702968835 x[13,4]
   <= 0
 R14: - 16.3942679846 y[14] + 1.1800057566 x[14,0] + 2.9794228561 x[14,1]
   + 2.606477591 x[14,2] + 6.3004820098 x[14,3] + 5.8702968835 x[14,4]
   <= 0
 R15: - 16.3942679846 y[15] + 1.1800057566 x[15,0] + 2.9794228561 x[15,1]
   + 2.606477591 x[15,2] + 6.3004820098 x[15,3] + 5.8702968835 x[15,4]
   <= 0
 R16: - 16.3942679846 y[16] + 1.1800057566 x[16,0] + 2.9794228561 x[16,1]
   + 2.606477591 x[16,2] + 6.3004820098 x[16,3] + 5.8702968835 x[16,4]
   <= 0
 R17: - 16.3942679846 y[17] + 1.1800057566 x[17,0] + 2.9794228561 x[17,1]
   + 2.606477591 x[17,2] + 6.3004820098 x[17,3] + 5.8702968835 x[17,4]
   <= 0
 R18: - 16.3942679846 y[18] + 1.1800057566 x[18,0] + 2.9794228561 x[18,1]
   + 2.606477591 x[18,2] + 6.3004820098 x[18,3] + 5.8702968835 x[18,4]
   <= 0
 R19: - 16.3942679846 y[19] + 1.1800057566 x[19,0] + 2.9794228561 x[19,1]
   + 2.606477591 x[19,2] + 6.3004820098 x[19,3] + 5.8702968835 x[19,4]
   <= 0
 R20: - 16.3942679846 y[20] + 1.1800057566 x[20,0] + 2.9794228561 x[20,1]
   + 2.606477591 x[20,2] + 6.3004820098 x[20,3] + 5.8702968835 x[20,4]
   <= 0
 R21: - 16.3942679846 y[21] + 1.1800057566 x[21,0] + 2.9794228561 x[21,1]
   + 2.606477591 x[21,2] + 6.3004820098 x[21,3] + 5.8702968835 x[21,4]
   <= 0
 R22: - 16.3942679846 y[22] + 1.1800057566 x[22,0] + 2.9794228561 x[22,1]
   + 2.606477591 x[22,2] + 6.3004820098 x[22,3] + 5.8702968835 x[22,4]
   <= 0
 R23: - 16.3942679846 y[23] + 1.1800057566 x[23,0] + 2.9794228561 x[23,1]
   + 2.606477591 x[23,2] + 6.3004820098 x[23,3] + 5.8702968835 x[23,4]
   <= 0
 R24: - 16.3942679846 y[24] + 1.1800057566 x[24,0] + 2.9794228561 x[24,1]
   + 2.606477591 x[24,2] + 6.3004820098 x[24,3] + 5.8702968835 x[24,4]
   <= 0
 R25: - 16.3942679846 y[25] + 1.1800057566 x[25,0] + 2.9794228561 x[25,1]
   + 2.606477591 x[25,2] + 6.3004820098 x[25,3] + 5.8702968835 x[25,4]
   <= 0
 R26: - 16.3942679846 y[26] + 1.1800057566 x[26,0] + 2.9794228561 x[26,1]
   + 2.606477591 x[26,2] + 6.3004820098 x[26,3] + 5.8702968835 x[26,4]
   <= 0
 R27: - 16.3942679846 y[27] + 1.1800057566 x[27,0] + 2.9794228561 x[27,1]
   + 2.606477591 x[27,2] + 6.3004820098 x[27,3] + 5.8702968835 x[27,4]
   <= 0
 R28: - 16.3942679846 y[28] + 1.1800057566 x[28,0] + 2.9794228561 x[28,1]
   + 2.606477591 x[28,2] + 6.3004820098 x[28,3] + 5.8702968835 x[28,4]
   <= 0
 R29: x[0,0] + x[1,0] + x[2,0] + x[3,0] + x[4,0] + x[5,0] + x[6,0] + x[7,0]
   + x[8,0] + x[9,0] + x[10,0] + x[11,0] + x[12,0] + x[13,0] + x[14,0]
   + x[15,0] + x[16,0] + x[17,0] + x[18,0] + x[19,0] + x[20,0] + x[21,0]
   + x[22,0] + x[23,0] + x[24,0] + x[25,0] + x[26,0] + x[27,0] + x[28,0]
   >= 9
 R30: x[0,1] + x[1,1] + x[2,1] + x[3,1] + x[4,1] + x[5,1] + x[6,1] + x[7,1]
   + x[8,1] + x[9,1] + x[10,1] + x[11,1] + x[12,1] + x[13,1] + x[14,1]
   + x[15,1] + x[16,1] + x[17,1] + x[18,1] + x[19,1] + x[20,1] + x[21,1]
   + x[22,1] + x[23,1] + x[24,1] + x[25,1] + x[26,1] + x[27,1] + x[28,1]
   >= 2
 R31: x[0,2] + x[1,2] + x[2,2] + x[3,2] + x[4,2] + x[5,2] + x[6,2] + x[7,2]
   + x[8,2] + x[9,2] + x[10,2] + x[11,2] + x[12,2] + x[13,2] + x[14,2]
   + x[15,2] + x[16,2] + x[17,2] + x[18,2] + x[19,2] + x[20,2] + x[21,2]
   + x[22,2] + x[23,2] + x[24,2] + x[25,2] + x[26,2] + x[27,2] + x[28,2]
   >= 10
 R32: x[0,3] + x[1,3] + x[2,3] + x[3,3] + x[4,3] + x[5,3] + x[6,3] + x[7,3]
   + x[8,3] + x[9,3] + x[10,3] + x[11,3] + x[12,3] + x[13,3] + x[14,3]
   + x[15,3] + x[16,3] + x[17,3] + x[18,3] + x[19,3] + x[20,3] + x[21,3]
   + x[22,3] + x[23,3] + x[24,3] + x[25,3] + x[26,3] + x[27,3] + x[28,3]
   >= 7
 R33: x[0,4] + x[1,4] + x[2,4] + x[3,4] + x[4,4] + x[5,4] + x[6,4] + x[7,4]
   + x[8,4] + x[9,4] + x[10,4] + x[11,4] + x[12,4] + x[13,4] + x[14,4]
   + x[15,4] + x[16,4] + x[17,4] + x[18,4] + x[19,4] + x[20,4] + x[21,4]
   + x[22,4] + x[23,4] + x[24,4] + x[25,4] + x[26,4] + x[27,4] + x[28,4]
   >= 1
Bounds
Binaries
 y[0] y[1] y[2] y[3] y[4] y[5] y[6] y[7] y[8] y[9] y[10] y[11] y[12] y[13]
 y[14] y[15] y[16] y[17] y[18] y[19] y[20] y[21] y[22] y[23] y[24] y[25]
 y[26] y[27] y[28]
Generals
 x[0,0] x[0,1] x[0,2] x[0,3] x[0,4] x[1,0] x[1,1] x[1,2] x[1,3] x[1,4]
 x[2,0] x[2,1] x[2,2] x[2,3] x[2,4] x[3,0] x[3,1] x[3,2] x[3,3] x[3,4]
 x[4,0] x[4,1] x[4,2] x[4,3] x[4,4] x[5,0] x[5,1] x[5,2] x[5,3] x[5,4]
 x[6,0] x[6,1] x[6,2] x[6,3] x[6,4] x[7,0] x[7,1] x[7,2] x[7,3] x[7,4]
 x[8,0] x[8,1] x[8,2] x[8,3] x[8,4] x[9,0] x[9,1] x[9,2] x[9,3] x[9,4]
 x[10,0] x[10,1] x[10,2] x[10,3] x[10,4] x[11,0] x[11,1] x[11,2] x[11,3]
 x[11,4] x[12,0] x[12,1] x[12,2] x[12,3] x[12,4] x[13,0] x[13,1] x[13,2]
 x[13,3] x[13,4] x[14,0] x[14,1] x[14,2] x[14,3] x[14,4] x[15,0] x[15,1]
 x[15,2] x[15,3] x[15,4] x[16,0] x[16,1] x[16,2] x[16,3] x[16,4] x[17,0]
 x[17,1] x[17,2] x[17,3] x[17,4] x[18,0] x[18,1] x[18,2] x[18,3] x[18,4]
 x[19,0] x[19,1] x[19,2] x[19,3] x[19,4] x[20,0] x[20,1] x[20,2] x[20,3]
 x[20,4] x[21,0] x[21,1] x[21,2] x[21,3] x[21,4] x[22,0] x[22,1] x[22,2]
 x[22,3] x[22,4] x[23,0] x[23,1] x[23,2] x[23,3] x[23,4] x[24,0] x[24,1]
 x[24,2] x[24,3] x[24,4] x[25,0] x[25,1] x[25,2] x[25,3] x[25,4] x[26,0]
 x[26,1] x[26,2] x[26,3] x[26,4] x[27,0] x[27,1] x[27,2] x[27,3] x[27,4]
 x[28,0] x[28,1] x[28,2] x[28,3] x[28,4]
End
